17	4
19	21	22	25	
0	0	0	0	0	3	2	3	4	
6	0	2	0	9	3	6	15	17	
9	1	0	5	4	3	5	15	17	
1	0	2	10	8	3	6	7	16	
9	0	10	7	7	3	8	14	16	
25	8	5	0	1	3	8	11	14	
125	7	0	9	7	3	9	12	17	
175	6	0	6	0	3	10	12	17	
25	0	10	3	2	3	10	13	17	
250	0	3	7	10	2	17	17	
150	1	2	7	1	3	17	17	17	
200	0	0	7	5	1	17	
5	0	2	4	7	3	15	17	17	
9	7	10	8	0	3	17	17	17	
5	9	0	1	7	2	17	17	
9	0	7	2	0	3	17	17	17	
0	0	0	0	0	0	
